Y24 Co72
1.000
     4.9183726816630     2.8396237917331    16.0810814400000
    -4.9183726816630     2.8396237917331    16.0810814400000
     0.0000000000000    -5.6792475834661    16.0810814400000
Y Co 
24 72 
Direct
    0.43043442295389     0.43043442295389     0.43043442295389
    0.43043442295389     0.43043442295389     0.93043442295389
    0.43043442295389     0.93043442295389     0.43043442295389
    0.43043442295389     0.93043442295389     0.93043442295389
    0.93043442295389     0.43043442295389     0.43043442295389
    0.93043442295389     0.43043442295389     0.93043442295389
    0.93043442295389     0.93043442295389     0.43043442295389
    0.93043442295389     0.93043442295389     0.93043442295389
    0.06956557704611     0.06956557704611     0.06956557704611
    0.06956557704611     0.06956557704611     0.56956557704611
    0.06956557704611     0.56956557704611     0.06956557704611
    0.06956557704611     0.56956557704611     0.56956557704611
    0.56956557704611     0.06956557704611     0.06956557704611
    0.56956557704611     0.06956557704611     0.56956557704611
    0.56956557704611     0.56956557704611     0.06956557704611
    0.56956557704611     0.56956557704611     0.56956557704611
    0.00000000000000     0.00000000000000     0.00000000000000
    0.00000000000000     0.00000000000000     0.50000000000000
    0.00000000000000     0.50000000000000     0.00000000000000
    0.00000000000000     0.50000000000000     0.50000000000000
    0.50000000000000     0.00000000000000     0.00000000000000
    0.50000000000000     0.00000000000000     0.50000000000000
    0.50000000000000     0.50000000000000     0.00000000000000
    0.50000000000000     0.50000000000000     0.50000000000000
    0.21136976283100     0.21136976283100     0.45785669720792
    0.21136976283100     0.21136976283100     0.95785669720792
    0.21136976283100     0.71136976283100     0.45785669720792
    0.21136976283100     0.71136976283100     0.95785669720792
    0.71136976283100     0.21136976283100     0.45785669720792
    0.71136976283100     0.21136976283100     0.95785669720792
    0.71136976283100     0.71136976283100     0.45785669720792
    0.71136976283100     0.71136976283100     0.95785669720792
    0.45785669720792     0.21136976283100     0.21136976283100
    0.45785669720792     0.21136976283100     0.71136976283100
    0.45785669720792     0.71136976283100     0.21136976283100
    0.45785669720792     0.71136976283100     0.71136976283100
    0.95785669720792     0.21136976283100     0.21136976283100
    0.95785669720792     0.21136976283100     0.71136976283100
    0.95785669720792     0.71136976283100     0.21136976283100
    0.95785669720792     0.71136976283100     0.71136976283100
    0.21136976283100     0.45785669720792     0.21136976283100
    0.21136976283100     0.45785669720792     0.71136976283100
    0.21136976283100     0.95785669720792     0.21136976283100
    0.21136976283100     0.95785669720792     0.71136976283100
    0.71136976283100     0.45785669720792     0.21136976283100
    0.71136976283100     0.45785669720792     0.71136976283100
    0.71136976283100     0.95785669720792     0.21136976283100
    0.71136976283100     0.95785669720792     0.71136976283100
    0.28863023716900     0.28863023716900     0.04214330279208
    0.28863023716900     0.28863023716900     0.54214330279208
    0.28863023716900     0.78863023716900     0.04214330279208
    0.28863023716900     0.78863023716900     0.54214330279208
    0.78863023716900     0.28863023716900     0.04214330279208
    0.78863023716900     0.28863023716900     0.54214330279208
    0.78863023716900     0.78863023716900     0.04214330279208
    0.78863023716900     0.78863023716900     0.54214330279208
    0.04214330279208     0.28863023716900     0.28863023716900
    0.04214330279208     0.28863023716900     0.78863023716900
    0.04214330279208     0.78863023716900     0.28863023716900
    0.04214330279208     0.78863023716900     0.78863023716900
    0.54214330279208     0.28863023716900     0.28863023716900
    0.54214330279208     0.28863023716900     0.78863023716900
    0.54214330279208     0.78863023716900     0.28863023716900
    0.54214330279208     0.78863023716900     0.78863023716900
    0.28863023716900     0.04214330279208     0.28863023716900
    0.28863023716900     0.04214330279208     0.78863023716900
    0.28863023716900     0.54214330279208     0.28863023716900
    0.28863023716900     0.54214330279208     0.78863023716900
    0.78863023716900     0.04214330279208     0.28863023716900
    0.78863023716900     0.04214330279208     0.78863023716900
    0.78863023716900     0.54214330279208     0.28863023716900
    0.78863023716900     0.54214330279208     0.78863023716900
    0.33397738458767     0.33397738458767     0.33397738458767
    0.33397738458767     0.33397738458767     0.83397738458767
    0.33397738458767     0.83397738458767     0.33397738458767
    0.33397738458767     0.83397738458767     0.83397738458767
    0.83397738458767     0.33397738458767     0.33397738458767
    0.83397738458767     0.33397738458767     0.83397738458767
    0.83397738458767     0.83397738458767     0.33397738458767
    0.83397738458767     0.83397738458767     0.83397738458767
    0.16602261541233     0.16602261541233     0.16602261541233
    0.16602261541233     0.16602261541233     0.66602261541233
    0.16602261541233     0.66602261541233     0.16602261541233
    0.16602261541233     0.66602261541233     0.66602261541233
    0.66602261541233     0.16602261541233     0.16602261541233
    0.66602261541233     0.16602261541233     0.66602261541233
    0.66602261541233     0.66602261541233     0.16602261541233
    0.66602261541233     0.66602261541233     0.66602261541233
    0.25000000000000     0.25000000000000     0.25000000000000
    0.25000000000000     0.25000000000000     0.75000000000000
    0.25000000000000     0.75000000000000     0.25000000000000
    0.25000000000000     0.75000000000000     0.75000000000000
    0.75000000000000     0.25000000000000     0.25000000000000
    0.75000000000000     0.25000000000000     0.75000000000000
    0.75000000000000     0.75000000000000     0.25000000000000
    0.75000000000000     0.75000000000000     0.75000000000000
