Y150
1.000
    18.2830035089170     0.0000000000000     0.0000000000000
    -9.1415017544585    15.8335454962022     0.0000000000000
     0.0000000000000     0.0000000000000    16.9396743429654
Y 
150 
Direct
    0.06666666666667     0.13333333333333     0.25000000000000
    0.06666666666667     0.13333333333333     0.58333333333333
    0.06666666666667     0.13333333333333     0.91666666666667
    0.06666666666667     0.33333333333333     0.25000000000000
    0.06666666666667     0.33333333333333     0.58333333333333
    0.06666666666667     0.33333333333333     0.91666666666667
    0.06666666666667     0.53333333333333     0.25000000000000
    0.06666666666667     0.53333333333333     0.58333333333333
    0.06666666666667     0.53333333333333     0.91666666666667
    0.06666666666667     0.73333333333333     0.25000000000000
    0.06666666666667     0.73333333333333     0.58333333333333
    0.06666666666667     0.73333333333333     0.91666666666667
    0.06666666666667     0.93333333333333     0.25000000000000
    0.06666666666667     0.93333333333333     0.58333333333333
    0.06666666666667     0.93333333333333     0.91666666666667
    0.26666666666667     0.13333333333333     0.25000000000000
    0.26666666666667     0.13333333333333     0.58333333333333
    0.26666666666667     0.13333333333333     0.91666666666667
    0.26666666666667     0.33333333333333     0.25000000000000
    0.26666666666667     0.33333333333333     0.58333333333333
    0.26666666666667     0.33333333333333     0.91666666666667
    0.26666666666667     0.53333333333333     0.25000000000000
    0.26666666666667     0.53333333333333     0.58333333333333
    0.26666666666667     0.53333333333333     0.91666666666667
    0.26666666666667     0.73333333333333     0.25000000000000
    0.26666666666667     0.73333333333333     0.58333333333333
    0.26666666666667     0.73333333333333     0.91666666666667
    0.26666666666667     0.93333333333333     0.25000000000000
    0.26666666666667     0.93333333333333     0.58333333333333
    0.26666666666667     0.93333333333333     0.91666666666667
    0.46666666666667     0.13333333333333     0.25000000000000
    0.46666666666667     0.13333333333333     0.58333333333333
    0.46666666666667     0.13333333333333     0.91666666666667
    0.46666666666667     0.33333333333333     0.25000000000000
    0.46666666666667     0.33333333333333     0.58333333333333
    0.46666666666667     0.33333333333333     0.91666666666667
    0.46666666666667     0.53333333333333     0.25000000000000
    0.46666666666667     0.53333333333333     0.58333333333333
    0.46666666666667     0.53333333333333     0.91666666666667
    0.46666666666667     0.73333333333333     0.25000000000000
    0.46666666666667     0.73333333333333     0.58333333333333
    0.46666666666667     0.73333333333333     0.91666666666667
    0.46666666666667     0.93333333333333     0.25000000000000
    0.46666666666667     0.93333333333333     0.58333333333333
    0.46666666666667     0.93333333333333     0.91666666666667
    0.66666666666667     0.13333333333333     0.25000000000000
    0.66666666666667     0.13333333333333     0.58333333333333
    0.66666666666667     0.13333333333333     0.91666666666667
    0.66666666666667     0.33333333333333     0.25000000000000
    0.66666666666667     0.33333333333333     0.58333333333333
    0.66666666666667     0.33333333333333     0.91666666666667
    0.66666666666667     0.53333333333333     0.25000000000000
    0.66666666666667     0.53333333333333     0.58333333333333
    0.66666666666667     0.53333333333333     0.91666666666667
    0.66666666666667     0.73333333333333     0.25000000000000
    0.66666666666667     0.73333333333333     0.58333333333333
    0.66666666666667     0.73333333333333     0.91666666666667
    0.66666666666667     0.93333333333333     0.25000000000000
    0.66666666666667     0.93333333333333     0.58333333333333
    0.66666666666667     0.93333333333333     0.91666666666667
    0.86666666666667     0.13333333333333     0.25000000000000
    0.86666666666667     0.13333333333333     0.58333333333333
    0.86666666666667     0.13333333333333     0.91666666666667
    0.86666666666667     0.33333333333333     0.25000000000000
    0.86666666666667     0.33333333333333     0.58333333333333
    0.86666666666667     0.33333333333333     0.91666666666667
    0.86666666666667     0.53333333333333     0.25000000000000
    0.86666666666667     0.53333333333333     0.58333333333333
    0.86666666666667     0.53333333333333     0.91666666666667
    0.86666666666667     0.73333333333333     0.25000000000000
    0.86666666666667     0.73333333333333     0.58333333333333
    0.86666666666667     0.73333333333333     0.91666666666667
    0.86666666666667     0.93333333333333     0.25000000000000
    0.86666666666667     0.93333333333333     0.58333333333333
    0.86666666666667     0.93333333333333     0.91666666666667
    0.13333333333333     0.06666666666667     0.08333333333333
    0.13333333333333     0.06666666666667     0.41666666666667
    0.13333333333333     0.06666666666667     0.75000000000000
    0.13333333333333     0.26666666666667     0.08333333333333
    0.13333333333333     0.26666666666667     0.41666666666667
    0.13333333333333     0.26666666666667     0.75000000000000
    0.13333333333333     0.46666666666667     0.08333333333333
    0.13333333333333     0.46666666666667     0.41666666666667
    0.13333333333333     0.46666666666667     0.75000000000000
    0.13333333333333     0.66666666666667     0.08333333333333
    0.13333333333333     0.66666666666667     0.41666666666667
    0.13333333333333     0.66666666666667     0.75000000000000
    0.13333333333333     0.86666666666667     0.08333333333333
    0.13333333333333     0.86666666666667     0.41666666666667
    0.13333333333333     0.86666666666667     0.75000000000000
    0.33333333333333     0.06666666666667     0.08333333333333
    0.33333333333333     0.06666666666667     0.41666666666667
    0.33333333333333     0.06666666666667     0.75000000000000
    0.33333333333333     0.26666666666667     0.08333333333333
    0.33333333333333     0.26666666666667     0.41666666666667
    0.33333333333333     0.26666666666667     0.75000000000000
    0.33333333333333     0.46666666666667     0.08333333333333
    0.33333333333333     0.46666666666667     0.41666666666667
    0.33333333333333     0.46666666666667     0.75000000000000
    0.33333333333333     0.66666666666667     0.08333333333333
    0.33333333333333     0.66666666666667     0.41666666666667
    0.33333333333333     0.66666666666667     0.75000000000000
    0.33333333333333     0.86666666666667     0.08333333333333
    0.33333333333333     0.86666666666667     0.41666666666667
    0.33333333333333     0.86666666666667     0.75000000000000
    0.53333333333333     0.06666666666667     0.08333333333333
    0.53333333333333     0.06666666666667     0.41666666666667
    0.53333333333333     0.06666666666667     0.75000000000000
    0.53333333333333     0.26666666666667     0.08333333333333
    0.53333333333333     0.26666666666667     0.41666666666667
    0.53333333333333     0.26666666666667     0.75000000000000
    0.53333333333333     0.46666666666667     0.08333333333333
    0.53333333333333     0.46666666666667     0.41666666666667
    0.53333333333333     0.46666666666667     0.75000000000000
    0.53333333333333     0.66666666666667     0.08333333333333
    0.53333333333333     0.66666666666667     0.41666666666667
    0.53333333333333     0.66666666666667     0.75000000000000
    0.53333333333333     0.86666666666667     0.08333333333333
    0.53333333333333     0.86666666666667     0.41666666666667
    0.53333333333333     0.86666666666667     0.75000000000000
    0.73333333333333     0.06666666666667     0.08333333333333
    0.73333333333333     0.06666666666667     0.41666666666667
    0.73333333333333     0.06666666666667     0.75000000000000
    0.73333333333333     0.26666666666667     0.08333333333333
    0.73333333333333     0.26666666666667     0.41666666666667
    0.73333333333333     0.26666666666667     0.75000000000000
    0.73333333333333     0.46666666666667     0.08333333333333
    0.73333333333333     0.46666666666667     0.41666666666667
    0.73333333333333     0.46666666666667     0.75000000000000
    0.73333333333333     0.66666666666667     0.08333333333333
    0.73333333333333     0.66666666666667     0.41666666666667
    0.73333333333333     0.66666666666667     0.75000000000000
    0.73333333333333     0.86666666666667     0.08333333333333
    0.73333333333333     0.86666666666667     0.41666666666667
    0.73333333333333     0.86666666666667     0.75000000000000
    0.93333333333333     0.06666666666667     0.08333333333333
    0.93333333333333     0.06666666666667     0.41666666666667
    0.93333333333333     0.06666666666667     0.75000000000000
    0.93333333333333     0.26666666666667     0.08333333333333
    0.93333333333333     0.26666666666667     0.41666666666667
    0.93333333333333     0.26666666666667     0.75000000000000
    0.93333333333333     0.46666666666667     0.08333333333333
    0.93333333333333     0.46666666666667     0.41666666666667
    0.93333333333333     0.46666666666667     0.75000000000000
    0.93333333333333     0.66666666666667     0.08333333333333
    0.93333333333333     0.66666666666667     0.41666666666667
    0.93333333333333     0.66666666666667     0.75000000000000
    0.93333333333333     0.86666666666667     0.08333333333333
    0.93333333333333     0.86666666666667     0.41666666666667
    0.93333333333333     0.86666666666667     0.75000000000000
